%nprocshared=6
%mem=6Gb
#p HF/UGBS output=wfn

TITLE

0 1
Be 0. 0. 0.

Be.wfn
   
   
   