%nprocshared=6
%mem=6Gb
#p HF/UGBS OPT output=wfn

TITLE

0 1
C          0.00000        1.39396        0.00000
C          1.20720        0.69698        0.00000
C          1.20720       -0.69698        0.00000
C          0.00000       -1.39396        0.00000
C         -1.20720       -0.69698        0.00000
C         -1.20720        0.69698        0.00000
H          0.00000        2.47566        0.00000
H          2.14398        1.23783        0.00000
H          2.14398       -1.23783        0.00000
H          0.00000       -2.47566        0.00000
H         -2.14398       -1.23783        0.00000
H         -2.14398        1.23783        0.00000

C6H6.wfn
   
   
   