%nprocshared=32
%mem=16Gb
#p MP2/def2TZVP OPT

TITLE

0 1
Cl 0. 0.  0.995100
Cl 0. 0. -0.995100
   
   
   