%nprocshared=32
%mem=16Gb
#p HF/6-31G output=wfn

TITLE

0 1
Cl 0. 0.  0.995100
Cl 0. 0. -0.995100

Cl2_6-31G.wfn
   
   
   