%nprocshared=32
%mem=16Gb
#p HF/def2TZVP output=wfn

TITLE

0 1
Cl 0. 0.  0.995100
Cl 0. 0. -0.995100

Cl2_def2TZVP.wfn
   
   
   