%nprocshared=32
%mem=16Gb
#p HF/aug-cc-pVTZ output=wfn

TITLE

0 1
Cl 0. 0.  0.995100
Cl 0. 0. -0.995100

Cl2_ACCT.wfn
   
   
   