%nprocshared=6
%mem=6Gb
#p HF/UGBS OPT output=wfn

TITLE

0 1
O          0.00000        0.00000        0.11779
H          0.00000        0.75545       -0.47116
H          0.00000       -0.75545       -0.47116

H2O.wfn
   
   
   