%nprocshared=4
%mem=2Gb
#p HF/aug-cc-pVTZ OUTPUT=WFN geom=nocrowd nosymm

TITLE

0 2
H 0. 0. 0.
H-Bq 0. 0. 1.8

H-X.1.8.wfn
   
   
   