%nprocshared=4
%mem=2Gb
#p HF/cc-pVTZ OUTPUT=WFN geom=nocrowd nosymm

TITLE

0 2
H 0. 0. 0.
H-Bq 0. 0. 2.9

H-X.2.9.wfn
   
   
   