%nprocshared=4
%mem=2Gb
#p HF/cc-pVQZ OUTPUT=WFN geom=nocrowd nosymm

TITLE

0 2
H 0. 0. 0.
H-Bq 0. 0. 5.1

H-X.5.1.wfn
   
   
   