%nprocshared=4
%mem=2Gb
#p HF/cc-pVQZ OUTPUT=WFN geom=nocrowd nosymm

TITLE

0 2
H 0. 0. 0.
H-Bq 0. 0. 0.9

H-X.0.9.wfn
   
   
   